\ Model subproblem_node0_iter3
\ LP format - for model browsing. Use MPS format to capture full model detail.
\ Signature: 0x515b09f6732c4211
Minimize
  4.8 x[0] + 4.8 x[1] + 9.6 x[2] + 4.8 x[4] + 9.6 x[5] + 4.8 x[7] + 4.8 x[8]
   + 9.6 x[9] + 9.6 x[11] + 4.8 x[14] + 4.8 x[15] + 9.6 x[16] + 4.8 x[18]
   + 9.6 x[19] + 4.8 x[21] + 4.8 x[22] + 9.6 x[23] + 9.6 x[25] + 4.8 x[28]
   + 4.8 x[29] + 9.6 x[30] + 4.8 x[32] + 9.6 x[33] + 4.8 x[35] + 4.8 x[36]
   + 9.6 x[37] + 9.6 x[39] + 4.8 x[42] + 4.8 x[43] + 9.6 x[44] + 4.8 x[46]
   + 9.6 x[47] + 4.8 x[49] + 4.8 x[50] + 9.6 x[51] + 9.6 x[53] + 4.8 x[56]
   + 4.8 x[57] + 9.6 x[58] + 4.8 x[60] + 9.6 x[61] + 4.8 x[63] + 4.8 x[64]
   + 9.6 x[65] + 9.6 x[67] + 4.8 x[70] + 4.8 x[71] + 9.6 x[72] + 4.8 x[74]
   + 9.6 x[75] + 4.8 x[77] + 4.8 x[78] + 9.6 x[79] + 9.6 x[81] + 4.8 x[84]
   + 4.8 x[85] + 9.6 x[86] + 4.8 x[88] + 9.6 x[89] + 4.8 x[91] + 4.8 x[92]
   + 9.6 x[93] + 9.6 x[95] + 4.8 x[98] + 4.8 x[99] + 9.6 x[100]
   + 4.8 x[102] + 9.6 x[103] + 4.8 x[105] + 4.8 x[106] + 9.6 x[107]
   + 9.6 x[109] + 4.8 x[112] + 4.8 x[113] + 9.6 x[114] + 4.8 x[116]
   + 9.6 x[117] + 4.8 x[119] + 4.8 x[120] + 9.6 x[121] + 9.6 x[123]
   + 11 x[130] + 2 x[131] + 18 x[132] + 20 x[133] + 22 x[134] + 20 x[135]
   + 4 x[136] + 2 x[137] + 6 x[139] + 4 x[140] + 2 x[141] + 20 x[142]
   + 18 x[143] + 20 x[144] + 22 x[145] + 11 x[147] + 22 x[148] + 11 x[150]
   + 22 x[151] + 11 x[154] + 22 x[155] + 11 x[157] + 22 x[158] + 11 x[160]
   + 22 x[161] + 11 x[163] + 22 x[164] + 11 x[166] + 8 x[167] + 14 x[168]
   + 22 x[169] + 11 x[171] + 8 x[172] + 14 x[173] + 22 x[174] + 11 x[177]
   + 8 x[178] + 14 x[179] + 22 x[180] + 11 x[182] + 8 x[183] + 14 x[184]
   + 22 x[185] + 11 x[187] + 8 x[188] + 14 x[189] + 22 x[190] + 11 x[192]
   + 8 x[193] + 14 x[194] + 22 x[195] + 11 x[197] + 4 x[198] + 18 x[199]
   + 18 x[200] + 4 x[201] + 8 x[202] + 22 x[203] + 11 x[205] + 4 x[206]
   + 18 x[207] + 18 x[208] + 4 x[209] + 8 x[210] + 22 x[211] + 11 x[214]
   + 4 x[215] + 18 x[216] + 18 x[217] + 4 x[218] + 8 x[219] + 22 x[220]
   + 11 x[222] + 4 x[223] + 18 x[224] + 18 x[225] + 4 x[226] + 8 x[227]
   + 22 x[228] + 11 x[230] + 4 x[231] + 18 x[232] + 18 x[233] + 4 x[234]
   + 8 x[235] + 22 x[236] + 11 x[238] + 4 x[239] + 18 x[240] + 18 x[241]
   + 4 x[242] + 8 x[243] + 22 x[244] + 11 x[246] + 4 x[247] + 18 x[248]
   + 22 x[249] + 11 x[251] + 4 x[252] + 18 x[253] + 22 x[254] + 11 x[257]
   + 4 x[258] + 18 x[259] + 22 x[260] + 11 x[262] + 4 x[263] + 18 x[264]
   + 22 x[265] + 11 x[267] + 4 x[268] + 18 x[269] + 22 x[270] + 11 x[272]
   + 4 x[273] + 18 x[274] + 22 x[275] + 11 x[277] + 6 x[278] + 14 x[279]
   + 16 x[280] + 8 x[281] + 14 x[282] + 22 x[283] + 11 x[285] + 6 x[286]
   + 14 x[287] + 16 x[288] + 8 x[289] + 14 x[290] + 22 x[291] + 11 x[294]
   + 6 x[295] + 14 x[296] + 16 x[297] + 8 x[298] + 14 x[299] + 22 x[300]
   + 11 x[302] + 6 x[303] + 14 x[304] + 16 x[305] + 8 x[306] + 14 x[307]
   + 22 x[308] + 11 x[310] + 6 x[311] + 14 x[312] + 16 x[313] + 8 x[314]
   + 14 x[315] + 22 x[316] + 11 x[318] + 6 x[319] + 14 x[320] + 16 x[321]
   + 8 x[322] + 14 x[323] + 22 x[324] + 11 x[326] + 4 x[327] + 6 x[328]
   + 18 x[329] + 16 x[330] + 20 x[331] + 22 x[332] + 11 x[334] + 4 x[335]
   + 6 x[336] + 18 x[337] + 16 x[338] + 20 x[339] + 22 x[340] + 11 x[343]
   + 4 x[344] + 6 x[345] + 18 x[346] + 16 x[347] + 20 x[348] + 22 x[349]
   + 11 x[351] + 4 x[352] + 6 x[353] + 18 x[354] + 16 x[355] + 20 x[356]
   + 22 x[357] + 11 x[359] + 4 x[360] + 6 x[361] + 18 x[362] + 16 x[363]
   + 20 x[364] + 22 x[365] + 11 x[367] + 4 x[368] + 6 x[369] + 18 x[370]
   + 16 x[371] + 20 x[372] + 22 x[373] + 11 x[375] + 18 x[376] + 20 x[377]
   + 4 x[378] + 2 x[379] + 20 x[380] + 22 x[381] + 11 x[383] + 18 x[384]
   + 20 x[385] + 4 x[386] + 2 x[387] + 20 x[388] + 22 x[389] + 11 x[392]
   + 18 x[393] + 20 x[394] + 4 x[395] + 2 x[396] + 20 x[397] + 22 x[398]
   + 11 x[400] + 18 x[401] + 20 x[402] + 4 x[403] + 2 x[404] + 20 x[405]
   + 22 x[406] + 11 x[408] + 18 x[409] + 20 x[410] + 4 x[411] + 2 x[412]
   + 20 x[413] + 22 x[414] + 11 x[416] + 18 x[417] + 20 x[418] + 4 x[419]
   + 2 x[420] + 20 x[421] + 22 x[422] + 11 x[424] + 2 x[425] + 14 x[426]
   + 20 x[427] + 8 x[428] + 10 x[429] + 22 x[430] + 11 x[432] + 2 x[433]
   + 14 x[434] + 20 x[435] + 8 x[436] + 10 x[437] + 22 x[438] + 11 x[441]
   + 2 x[442] + 14 x[443] + 20 x[444] + 8 x[445] + 10 x[446] + 22 x[447]
   + 11 x[449] + 2 x[450] + 14 x[451] + 20 x[452] + 8 x[453] + 10 x[454]
   + 22 x[455] + 11 x[457] + 2 x[458] + 14 x[459] + 20 x[460] + 8 x[461]
   + 10 x[462] + 22 x[463] + 11 x[465] + 2 x[466] + 14 x[467] + 20 x[468]
   + 8 x[469] + 10 x[470] + 22 x[471] + 11 x[473] + 2 x[474] + 10 x[475]
   + 20 x[476] + 20 x[477] + 12 x[478] + 2 x[479] + 14 x[480] + 4 x[481]
   + 12 x[482] + 22 x[483] + 11 x[485] + 2 x[486] + 10 x[487] + 20 x[488]
   + 20 x[489] + 12 x[490] + 2 x[491] + 14 x[492] + 4 x[493] + 12 x[494]
   + 22 x[495] + 11 x[498] + 2 x[499] + 10 x[500] + 20 x[501] + 20 x[502]
   + 12 x[503] + 2 x[504] + 14 x[505] + 4 x[506] + 12 x[507] + 22 x[508]
   + 11 x[510] + 2 x[511] + 10 x[512] + 20 x[513] + 20 x[514] + 12 x[515]
   + 2 x[516] + 14 x[517] + 4 x[518] + 12 x[519] + 22 x[520] + 11 x[522]
   + 2 x[523] + 10 x[524] + 20 x[525] + 20 x[526] + 12 x[527] + 2 x[528]
   + 14 x[529] + 4 x[530] + 12 x[531] + 22 x[532] + 11 x[534] + 2 x[535]
   + 10 x[536] + 20 x[537] + 20 x[538] + 12 x[539] + 2 x[540] + 14 x[541]
   + 4 x[542] + 12 x[543] + 22 x[544] - 41.6 z[0] - 65.2 z[1] - 41.2 z[2]
   - 60.4 z[3] - 50.8 z[4] - 62.4 z[5] + 206.4 z[6] - 4 z[7]
Subject To
 flow_0+_U,U,1C: x[0] - x[130] = 0
 flow_1-_U,U,1C: - x[0] + x[160] + x[161] + x[162] = 0
 flow_0+_E,0,1C: x[1] + x[2] + x[3] - x[131] - x[132] - x[133] - x[134]
   = 0
 flow_1-_E,0,1C: - x[1] - x[7] + x[154] + x[155] + x[156] = 0
 flow_1-_E,E,2C: - x[2] - x[5] - x[11] + x[147] + x[148] + x[149] = 0
 flow_1-_0,0,1C: - x[3] - x[6] - x[10] - x[13] + x[153] = 0
 flow_0+_0,E,1C: x[4] + x[5] + x[6] - x[135] - x[136] - x[137] - x[138]
   = 0
 flow_1-_0,E,1C: - x[4] - x[8] + x[157] + x[158] + x[159] = 0
 flow_0+_E,E,1C: x[7] + x[8] + x[9] + x[10] - x[145] = 0
 flow_1-_E,E,1C: - x[9] + x[150] + x[151] + x[152] = 0
 flow_0+_E,E,2C: x[11] - x[139] - x[140] - x[141] - x[142] - x[143]
   - x[144] = 0
 flow_0+_0,0,0C: x[12] - x[146] = 0
 flow_1-_0,0,0C: - x[12] + x[163] + x[164] + x[165] = 0
 flow_0+_0,0,1C: x[13] = 0
 flow_1+_U,U,1C: x[14] - x[147] - x[150] - x[154] - x[157] - x[161]
   - x[162] - x[163] = 0
 flow_2-_U,U,1C: - x[14] + x[187] + x[188] + x[189] + x[190] + x[191] = 0
 flow_1+_E,0,1C: x[15] + x[16] + x[17] - x[156] = 0
 flow_2-_E,0,1C: - x[15] - x[21] + x[177] + x[178] + x[179] + x[180]
   + x[181] = 0
 flow_2-_E,E,2C: - x[16] - x[19] - x[25] + x[166] + x[167] + x[168]
   + x[169] + x[170] = 0
 flow_2-_0,0,1C: - x[17] - x[20] - x[24] - x[27] + x[176] = 0
 flow_1+_0,E,1C: x[18] + x[19] + x[20] - x[159] = 0
 flow_2-_0,E,1C: - x[18] - x[22] + x[182] + x[183] + x[184] + x[185]
   + x[186] = 0
 flow_1+_E,E,1C: x[21] + x[22] + x[23] + x[24] - x[148] - x[151] - x[152]
   - x[155] - x[158] - x[160] - x[164] = 0
 flow_2-_E,E,1C: - x[23] + x[171] + x[172] + x[173] + x[174] + x[175] = 0
 flow_1+_E,E,2C: x[25] - x[149] = 0
 flow_1+_0,0,0C: x[26] - x[165] = 0
 flow_2-_0,0,0C: - x[26] + x[192] + x[193] + x[194] + x[195] + x[196] = 0
 flow_1+_0,0,1C: x[27] - x[153] = 0
 flow_2+_U,U,1C: x[28] - x[166] - x[171] - x[177] - x[182] - x[188]
   - x[189] - x[190] - x[191] - x[192] = 0
 flow_3-_U,U,1C: - x[28] + x[230] + x[231] + x[232] + x[233] + x[234]
   + x[235] + x[236] + x[237] = 0
 flow_2+_E,0,1C: x[29] + x[30] + x[31] - x[178] - x[181] - x[193] = 0
 flow_3-_E,0,1C: - x[29] - x[35] + x[214] + x[215] + x[216] + x[217]
   + x[218] + x[219] + x[220] + x[221] = 0
 flow_3-_E,E,2C: - x[30] - x[33] - x[39] + x[197] + x[198] + x[199]
   + x[200] + x[201] + x[202] + x[203] + x[204] = 0
 flow_3-_0,0,1C: - x[31] - x[34] - x[38] - x[41] + x[213] = 0
 flow_2+_0,E,1C: x[32] + x[33] + x[34] - x[184] - x[186] - x[194] = 0
 flow_3-_0,E,1C: - x[32] - x[36] + x[222] + x[223] + x[224] + x[225]
   + x[226] + x[227] + x[228] + x[229] = 0
 flow_2+_E,E,1C: x[35] + x[36] + x[37] + x[38] - x[169] - x[172] - x[173]
   - x[174] - x[175] - x[180] - x[185] - x[187] - x[195] = 0
 flow_3-_E,E,1C: - x[37] + x[205] + x[206] + x[207] + x[208] + x[209]
   + x[210] + x[211] + x[212] = 0
 flow_2+_E,E,2C: x[39] - x[167] - x[168] - x[170] - x[179] - x[183] = 0
 flow_2+_0,0,0C: x[40] - x[196] = 0
 flow_3-_0,0,0C: - x[40] + x[238] + x[239] + x[240] + x[241] + x[242]
   + x[243] + x[244] + x[245] = 0
 flow_2+_0,0,1C: x[41] - x[176] = 0
 flow_3+_U,U,1C: x[42] - x[197] - x[205] - x[214] - x[222] - x[231]
   - x[232] - x[233] - x[234] - x[235] - x[236] - x[237] - x[238] = 0
 flow_4-_U,U,1C: - x[42] + x[267] + x[268] + x[269] + x[270] + x[271] = 0
 flow_3+_E,0,1C: x[43] + x[44] + x[45] - x[215] - x[216] - x[221] - x[239]
   - x[240] = 0
 flow_4-_E,0,1C: - x[43] - x[49] + x[257] + x[258] + x[259] + x[260]
   + x[261] = 0
 flow_4-_E,E,2C: - x[44] - x[47] - x[53] + x[246] + x[247] + x[248]
   + x[249] + x[250] = 0
 flow_4-_0,0,1C: - x[45] - x[48] - x[52] - x[55] + x[256] = 0
 flow_3+_0,E,1C: x[46] + x[47] + x[48] - x[225] - x[226] - x[229] - x[241]
   - x[242] = 0
 flow_4-_0,E,1C: - x[46] - x[50] + x[262] + x[263] + x[264] + x[265]
   + x[266] = 0
 flow_3+_E,E,1C: x[49] + x[50] + x[51] + x[52] - x[203] - x[206] - x[207]
   - x[208] - x[209] - x[210] - x[211] - x[212] - x[220] - x[228] - x[230]
   - x[244] = 0
 flow_4-_E,E,1C: - x[51] + x[251] + x[252] + x[253] + x[254] + x[255] = 0
 flow_3+_E,E,2C: x[53] - x[198] - x[199] - x[200] - x[201] - x[202]
   - x[204] - x[217] - x[218] - x[219] - x[223] - x[224] - x[227] - x[243]
   = 0
 flow_3+_0,0,0C: x[54] - x[245] = 0
 flow_4-_0,0,0C: - x[54] + x[272] + x[273] + x[274] + x[275] + x[276] = 0
 flow_3+_0,0,1C: x[55] - x[213] = 0
 flow_4+_U,U,1C: x[56] - x[246] - x[251] - x[257] - x[262] - x[268]
   - x[269] - x[270] - x[271] - x[272] = 0
 flow_5-_U,U,1C: - x[56] + x[310] + x[311] + x[312] + x[313] + x[314]
   + x[315] + x[316] + x[317] = 0
 flow_4+_E,0,1C: x[57] + x[58] + x[59] - x[258] - x[261] - x[273] = 0
 flow_5-_E,0,1C: - x[57] - x[63] + x[294] + x[295] + x[296] + x[297]
   + x[298] + x[299] + x[300] + x[301] = 0
 flow_5-_E,E,2C: - x[58] - x[61] - x[67] + x[277] + x[278] + x[279]
   + x[280] + x[281] + x[282] + x[283] + x[284] = 0
 flow_5-_0,0,1C: - x[59] - x[62] - x[66] - x[69] + x[293] = 0
 flow_4+_0,E,1C: x[60] + x[61] + x[62] - x[264] - x[266] - x[274] = 0
 flow_5-_0,E,1C: - x[60] - x[64] + x[302] + x[303] + x[304] + x[305]
   + x[306] + x[307] + x[308] + x[309] = 0
 flow_4+_E,E,1C: x[63] + x[64] + x[65] + x[66] - x[249] - x[252] - x[253]
   - x[254] - x[255] - x[260] - x[265] - x[267] - x[275] = 0
 flow_5-_E,E,1C: - x[65] + x[285] + x[286] + x[287] + x[288] + x[289]
   + x[290] + x[291] + x[292] = 0
 flow_4+_E,E,2C: x[67] - x[247] - x[248] - x[250] - x[259] - x[263] = 0
 flow_4+_0,0,0C: x[68] - x[276] = 0
 flow_5-_0,0,0C: - x[68] + x[318] + x[319] + x[320] + x[321] + x[322]
   + x[323] + x[324] + x[325] = 0
 flow_4+_0,0,1C: x[69] - x[256] = 0
 flow_5+_U,U,1C: x[70] - x[277] - x[285] - x[294] - x[302] - x[311]
   - x[312] - x[313] - x[314] - x[315] - x[316] - x[317] - x[318] = 0
 flow_6-_U,U,1C: - x[70] + x[359] + x[360] + x[361] + x[362] + x[363]
   + x[364] + x[365] + x[366] = 0
 flow_5+_E,0,1C: x[71] + x[72] + x[73] - x[295] - x[296] - x[301] - x[319]
   - x[320] = 0
 flow_6-_E,0,1C: - x[71] - x[77] + x[343] + x[344] + x[345] + x[346]
   + x[347] + x[348] + x[349] + x[350] = 0
 flow_6-_E,E,2C: - x[72] - x[75] - x[81] + x[326] + x[327] + x[328]
   + x[329] + x[330] + x[331] + x[332] + x[333] = 0
 flow_6-_0,0,1C: - x[73] - x[76] - x[80] - x[83] + x[342] = 0
 flow_5+_0,E,1C: x[74] + x[75] + x[76] - x[305] - x[306] - x[309] - x[321]
   - x[322] = 0
 flow_6-_0,E,1C: - x[74] - x[78] + x[351] + x[352] + x[353] + x[354]
   + x[355] + x[356] + x[357] + x[358] = 0
 flow_5+_E,E,1C: x[77] + x[78] + x[79] + x[80] - x[283] - x[286] - x[287]
   - x[288] - x[289] - x[290] - x[291] - x[292] - x[300] - x[308] - x[310]
   - x[324] = 0
 flow_6-_E,E,1C: - x[79] + x[334] + x[335] + x[336] + x[337] + x[338]
   + x[339] + x[340] + x[341] = 0
 flow_5+_E,E,2C: x[81] - x[278] - x[279] - x[280] - x[281] - x[282]
   - x[284] - x[297] - x[298] - x[299] - x[303] - x[304] - x[307] - x[323]
   = 0
 flow_5+_0,0,0C: x[82] - x[325] = 0
 flow_6-_0,0,0C: - x[82] + x[367] + x[368] + x[369] + x[370] + x[371]
   + x[372] + x[373] + x[374] = 0
 flow_5+_0,0,1C: x[83] - x[293] = 0
 flow_6+_U,U,1C: x[84] - x[326] - x[334] - x[343] - x[351] - x[360]
   - x[361] - x[362] - x[363] - x[364] - x[365] - x[366] - x[367] = 0
 flow_7-_U,U,1C: - x[84] + x[408] + x[409] + x[410] + x[411] + x[412]
   + x[413] + x[414] + x[415] = 0
 flow_6+_E,0,1C: x[85] + x[86] + x[87] - x[344] - x[345] - x[350] - x[368]
   - x[369] = 0
 flow_7-_E,0,1C: - x[85] - x[91] + x[392] + x[393] + x[394] + x[395]
   + x[396] + x[397] + x[398] + x[399] = 0
 flow_7-_E,E,2C: - x[86] - x[89] - x[95] + x[375] + x[376] + x[377]
   + x[378] + x[379] + x[380] + x[381] + x[382] = 0
 flow_7-_0,0,1C: - x[87] - x[90] - x[94] - x[97] + x[391] = 0
 flow_6+_0,E,1C: x[88] + x[89] + x[90] - x[354] - x[355] - x[358] - x[370]
   - x[371] = 0
 flow_7-_0,E,1C: - x[88] - x[92] + x[400] + x[401] + x[402] + x[403]
   + x[404] + x[405] + x[406] + x[407] = 0
 flow_6+_E,E,1C: x[91] + x[92] + x[93] + x[94] - x[332] - x[335] - x[336]
   - x[337] - x[338] - x[339] - x[340] - x[341] - x[349] - x[357] - x[359]
   - x[373] = 0
 flow_7-_E,E,1C: - x[93] + x[383] + x[384] + x[385] + x[386] + x[387]
   + x[388] + x[389] + x[390] = 0
 flow_6+_E,E,2C: x[95] - x[327] - x[328] - x[329] - x[330] - x[331]
   - x[333] - x[346] - x[347] - x[348] - x[352] - x[353] - x[356] - x[372]
   = 0
 flow_6+_0,0,0C: x[96] - x[374] = 0
 flow_7-_0,0,0C: - x[96] + x[416] + x[417] + x[418] + x[419] + x[420]
   + x[421] + x[422] + x[423] = 0
 flow_6+_0,0,1C: x[97] - x[342] = 0
 flow_7+_U,U,1C: x[98] - x[375] - x[383] - x[392] - x[400] - x[409]
   - x[410] - x[411] - x[412] - x[413] - x[414] - x[415] - x[416] = 0
 flow_8-_U,U,1C: - x[98] + x[457] + x[458] + x[459] + x[460] + x[461]
   + x[462] + x[463] + x[464] = 0
 flow_7+_E,0,1C: x[99] + x[100] + x[101] - x[393] - x[394] - x[399]
   - x[417] - x[418] = 0
 flow_8-_E,0,1C: - x[99] - x[105] + x[441] + x[442] + x[443] + x[444]
   + x[445] + x[446] + x[447] + x[448] = 0
 flow_8-_E,E,2C: - x[100] - x[103] - x[109] + x[424] + x[425] + x[426]
   + x[427] + x[428] + x[429] + x[430] + x[431] = 0
 flow_8-_0,0,1C: - x[101] - x[104] - x[108] - x[111] + x[440] = 0
 flow_7+_0,E,1C: x[102] + x[103] + x[104] - x[403] - x[404] - x[407]
   - x[419] - x[420] = 0
 flow_8-_0,E,1C: - x[102] - x[106] + x[449] + x[450] + x[451] + x[452]
   + x[453] + x[454] + x[455] + x[456] = 0
 flow_7+_E,E,1C: x[105] + x[106] + x[107] + x[108] - x[381] - x[384]
   - x[385] - x[386] - x[387] - x[388] - x[389] - x[390] - x[398] - x[406]
   - x[408] - x[422] = 0
 flow_8-_E,E,1C: - x[107] + x[432] + x[433] + x[434] + x[435] + x[436]
   + x[437] + x[438] + x[439] = 0
 flow_7+_E,E,2C: x[109] - x[376] - x[377] - x[378] - x[379] - x[380]
   - x[382] - x[395] - x[396] - x[397] - x[401] - x[402] - x[405] - x[421]
   = 0
 flow_7+_0,0,0C: x[110] - x[423] = 0
 flow_8-_0,0,0C: - x[110] + x[465] + x[466] + x[467] + x[468] + x[469]
   + x[470] + x[471] + x[472] = 0
 flow_7+_0,0,1C: x[111] - x[391] = 0
 flow_8+_U,U,1C: x[112] - x[424] - x[432] - x[441] - x[449] - x[458]
   - x[459] - x[460] - x[461] - x[462] - x[463] - x[464] - x[465] = 0
 flow_9-_U,U,1C: - x[112] + x[522] + x[523] + x[524] + x[525] + x[526]
   + x[527] + x[528] + x[529] + x[530] + x[531] + x[532] + x[533] = 0
 flow_8+_E,0,1C: x[113] + x[114] + x[115] - x[442] - x[443] - x[448]
   - x[466] - x[467] = 0
 flow_9-_E,0,1C: - x[113] - x[119] + x[498] + x[499] + x[500] + x[501]
   + x[502] + x[503] + x[504] + x[505] + x[506] + x[507] + x[508] + x[509]
   = 0
 flow_9-_E,E,2C: - x[114] - x[117] - x[123] + x[473] + x[474] + x[475]
   + x[476] + x[477] + x[478] + x[479] + x[480] + x[481] + x[482] + x[483]
   + x[484] = 0
 flow_9-_0,0,1C: - x[115] - x[118] - x[122] - x[125] + x[497] = 0
 flow_8+_0,E,1C: x[116] + x[117] + x[118] - x[452] - x[453] - x[456]
   - x[468] - x[469] = 0
 flow_9-_0,E,1C: - x[116] - x[120] + x[510] + x[511] + x[512] + x[513]
   + x[514] + x[515] + x[516] + x[517] + x[518] + x[519] + x[520] + x[521]
   = 0
 flow_8+_E,E,1C: x[119] + x[120] + x[121] + x[122] - x[430] - x[433]
   - x[434] - x[435] - x[436] - x[437] - x[438] - x[439] - x[447] - x[455]
   - x[457] - x[471] = 0
 flow_9-_E,E,1C: - x[121] + x[485] + x[486] + x[487] + x[488] + x[489]
   + x[490] + x[491] + x[492] + x[493] + x[494] + x[495] + x[496] = 0
 flow_8+_E,E,2C: x[123] - x[425] - x[426] - x[427] - x[428] - x[429]
   - x[431] - x[444] - x[445] - x[446] - x[450] - x[451] - x[454] - x[470]
   = 0
 flow_8+_0,0,0C: x[124] - x[472] = 0
 flow_9-_0,0,0C: - x[124] + x[534] + x[535] + x[536] + x[537] + x[538]
   + x[539] + x[540] + x[541] + x[542] + x[543] + x[544] + x[545] = 0
 flow_8+_0,0,1C: x[125] - x[440] = 0
 flow_9+_0,0,1C: x[126] - x[497] = 0
 flow_destination: - x[126] - x[127] - x[128] - x[129] = -1
 flow_9+_E,0,1C: x[127] - x[499] - x[500] - x[501] - x[509] - x[535]
   - x[536] - x[537] = 0
 flow_9+_0,E,1C: x[128] - x[514] - x[515] - x[516] - x[521] - x[538]
   - x[539] - x[540] = 0
 flow_9+_E,E,1C: x[129] - x[483] - x[486] - x[487] - x[488] - x[489]
   - x[490] - x[491] - x[492] - x[493] - x[494] - x[495] - x[496] - x[508]
   - x[520] - x[522] - x[544] = 0
 flow_origin: x[130] + x[131] + x[132] + x[133] + x[134] + x[135] + x[136]
   + x[137] + x[138] + x[139] + x[140] + x[141] + x[142] + x[143] + x[144]
   + x[145] + x[146] = 1
 flow_9+_U,U,1C: - x[473] - x[485] - x[498] - x[510] - x[523] - x[524]
   - x[525] - x[526] - x[527] - x[528] - x[529] - x[530] - x[531] - x[532]
   - x[533] - x[534] = 0
 flow_9+_E,E,2C: - x[474] - x[475] - x[476] - x[477] - x[478] - x[479]
   - x[480] - x[481] - x[482] - x[484] - x[502] - x[503] - x[504] - x[505]
   - x[506] - x[507] - x[511] - x[512] - x[513] - x[517] - x[518] - x[519]
   - x[541] - x[542] - x[543] = 0
 flow_9+_0,0,0C: - x[545] = 0
 link_sku_5: x[130] + x[132] + x[133] + x[134] + x[135] + x[136] + x[139]
   + x[142] + x[143] + x[144] + x[145] - y[5] >= 0
 link_sku_3: x[130] + x[133] + x[134] + x[135] + x[136] + x[137] + x[139]
   + x[140] + x[142] + x[144] + x[145] - y[3] >= 0
 link_sku_17: x[130] + x[131] + x[132] + x[133] + x[134] + x[135] + x[139]
   + x[140] + x[141] + x[142] + x[143] + x[144] + x[145] - y[17] >= 0
 link_sku_11: x[166] + x[167] + x[168] + x[169] + x[171] + x[172] + x[173]
   + x[174] + x[177] + x[178] + x[179] + x[180] + x[182] + x[183] + x[184]
   + x[185] + x[187] + x[188] + x[189] + x[190] + x[192] + x[193] + x[194]
   + x[195] - y[11] >= 0
 link_sku_0: x[197] + x[199] + x[200] + x[201] + x[202] + x[203] + x[205]
   + x[207] + x[208] + x[209] + x[210] + x[211] + x[214] + x[216] + x[217]
   + x[218] + x[219] + x[220] + x[222] + x[224] + x[225] + x[226] + x[227]
   + x[228] + x[230] + x[232] + x[233] + x[234] + x[235] + x[236] + x[238]
   + x[240] + x[241] + x[242] + x[243] + x[244] - y[0] >= 0
 link_sku_14: x[197] + x[198] + x[199] + x[200] + x[202] + x[203] + x[205]
   + x[206] + x[207] + x[208] + x[210] + x[211] + x[214] + x[215] + x[216]
   + x[217] + x[219] + x[220] + x[222] + x[223] + x[224] + x[225] + x[227]
   + x[228] + x[230] + x[231] + x[232] + x[233] + x[235] + x[236] + x[238]
   + x[239] + x[240] + x[241] + x[243] + x[244] - y[14] >= 0
 link_sku_6: x[246] + x[247] + x[248] + x[249] + x[251] + x[252] + x[253]
   + x[254] + x[257] + x[258] + x[259] + x[260] + x[262] + x[263] + x[264]
   + x[265] + x[267] + x[268] + x[269] + x[270] + x[272] + x[273] + x[274]
   + x[275] - y[6] >= 0
 link_sku_7: x[277] + x[278] + x[279] + x[280] + x[282] + x[283] + x[285]
   + x[286] + x[287] + x[288] + x[290] + x[291] + x[294] + x[295] + x[296]
   + x[297] + x[299] + x[300] + x[302] + x[303] + x[304] + x[305] + x[307]
   + x[308] + x[310] + x[311] + x[312] + x[313] + x[315] + x[316] + x[318]
   + x[319] + x[320] + x[321] + x[323] + x[324] - y[7] >= 0
 link_sku_13: x[277] + x[279] + x[280] + x[281] + x[282] + x[283] + x[285]
   + x[287] + x[288] + x[289] + x[290] + x[291] + x[294] + x[296] + x[297]
   + x[298] + x[299] + x[300] + x[302] + x[304] + x[305] + x[306] + x[307]
   + x[308] + x[310] + x[312] + x[313] + x[314] + x[315] + x[316] + x[318]
   + x[320] + x[321] + x[322] + x[323] + x[324] - y[13] >= 0
 link_sku_16: x[326] + x[327] + x[328] + x[329] + x[331] + x[332] + x[334]
   + x[335] + x[336] + x[337] + x[339] + x[340] + x[343] + x[344] + x[345]
   + x[346] + x[348] + x[349] + x[351] + x[352] + x[353] + x[354] + x[356]
   + x[357] + x[359] + x[360] + x[361] + x[362] + x[364] + x[365] + x[367]
   + x[368] + x[369] + x[370] + x[372] + x[373] - y[16] >= 0
 link_sku_10: x[326] + x[328] + x[329] + x[330] + x[331] + x[332] + x[334]
   + x[336] + x[337] + x[338] + x[339] + x[340] + x[343] + x[345] + x[346]
   + x[347] + x[348] + x[349] + x[351] + x[353] + x[354] + x[355] + x[356]
   + x[357] + x[359] + x[361] + x[362] + x[363] + x[364] + x[365] + x[367]
   + x[369] + x[370] + x[371] + x[372] + x[373] - y[10] >= 0
 link_sku_1: x[375] + x[376] + x[377] + x[378] + x[380] + x[381] + x[383]
   + x[384] + x[385] + x[386] + x[388] + x[389] + x[392] + x[393] + x[394]
   + x[395] + x[397] + x[398] + x[400] + x[401] + x[402] + x[403] + x[405]
   + x[406] + x[408] + x[409] + x[410] + x[411] + x[413] + x[414] + x[416]
   + x[417] + x[418] + x[419] + x[421] + x[422] - y[1] >= 0
 link_sku_12: x[375] + x[377] + x[378] + x[379] + x[380] + x[381] + x[383]
   + x[385] + x[386] + x[387] + x[388] + x[389] + x[392] + x[394] + x[395]
   + x[396] + x[397] + x[398] + x[400] + x[402] + x[403] + x[404] + x[405]
   + x[406] + x[408] + x[410] + x[411] + x[412] + x[413] + x[414] + x[416]
   + x[418] + x[419] + x[420] + x[421] + x[422] - y[12] >= 0
 link_sku_8: x[424] + x[425] + x[426] + x[427] + x[429] + x[430] + x[432]
   + x[433] + x[434] + x[435] + x[437] + x[438] + x[441] + x[442] + x[443]
   + x[444] + x[446] + x[447] + x[449] + x[450] + x[451] + x[452] + x[454]
   + x[455] + x[457] + x[458] + x[459] + x[460] + x[462] + x[463] + x[465]
   + x[466] + x[467] + x[468] + x[470] + x[471] - y[8] >= 0
 link_sku_9: x[424] + x[426] + x[427] + x[428] + x[429] + x[430] + x[432]
   + x[434] + x[435] + x[436] + x[437] + x[438] + x[441] + x[443] + x[444]
   + x[445] + x[446] + x[447] + x[449] + x[451] + x[452] + x[453] + x[454]
   + x[455] + x[457] + x[459] + x[460] + x[461] + x[462] + x[463] + x[465]
   + x[467] + x[468] + x[469] + x[470] + x[471] - y[9] >= 0
 link_sku_4: x[473] + x[474] + x[475] + x[476] + x[477] + x[480] + x[481]
   + x[482] + x[483] + x[485] + x[486] + x[487] + x[488] + x[489] + x[492]
   + x[493] + x[494] + x[495] + x[498] + x[499] + x[500] + x[501] + x[502]
   + x[505] + x[506] + x[507] + x[508] + x[510] + x[511] + x[512] + x[513]
   + x[514] + x[517] + x[518] + x[519] + x[520] + x[522] + x[523] + x[524]
   + x[525] + x[526] + x[529] + x[530] + x[531] + x[532] + x[534] + x[535]
   + x[536] + x[537] + x[538] + x[541] + x[542] + x[543] + x[544] - y[4]
   >= 0
 link_sku_15: x[473] + x[476] + x[477] + x[478] + x[479] + x[480] + x[481]
   + x[482] + x[483] + x[485] + x[488] + x[489] + x[490] + x[491] + x[492]
   + x[493] + x[494] + x[495] + x[498] + x[501] + x[502] + x[503] + x[504]
   + x[505] + x[506] + x[507] + x[508] + x[510] + x[513] + x[514] + x[515]
   + x[516] + x[517] + x[518] + x[519] + x[520] + x[522] + x[525] + x[526]
   + x[527] + x[528] + x[529] + x[530] + x[531] + x[532] + x[534] + x[537]
   + x[538] + x[539] + x[540] + x[541] + x[542] + x[543] + x[544] - y[15]
   >= 0
 link_sku_2: x[473] + x[475] + x[476] + x[477] + x[478] + x[480] + x[482]
   + x[483] + x[485] + x[487] + x[488] + x[489] + x[490] + x[492] + x[494]
   + x[495] + x[498] + x[500] + x[501] + x[502] + x[503] + x[505] + x[507]
   + x[508] + x[510] + x[512] + x[513] + x[514] + x[515] + x[517] + x[519]
   + x[520] + x[522] + x[524] + x[525] + x[526] + x[527] + x[529] + x[531]
   + x[532] + x[534] + x[536] + x[537] + x[538] + x[539] + x[541] + x[543]
   + x[544] - y[2] >= 0
 link_order_0_sku_0: y[0] - z[0] >= 0
 link_order_0_sku_1: y[1] - z[0] >= 0
 link_order_1_sku_2: y[2] - z[1] >= 0
 link_order_1_sku_3: y[3] - z[1] >= 0
 link_order_1_sku_4: y[4] - z[1] >= 0
 link_order_2_sku_5: y[5] - z[2] >= 0
 link_order_2_sku_6: y[6] - z[2] >= 0
 link_order_3_sku_7: y[7] - z[3] >= 0
 link_order_3_sku_8: y[8] - z[3] >= 0
 link_order_3_sku_9: y[9] - z[3] >= 0
 link_order_4_sku_10: y[10] - z[4] >= 0
 link_order_4_sku_11: y[11] - z[4] >= 0
 link_order_5_sku_12: y[12] - z[5] >= 0
 link_order_5_sku_13: y[13] - z[5] >= 0
 link_order_5_sku_8: y[8] - z[5] >= 0
 link_order_6_sku_14: y[14] - z[6] >= 0
 link_order_6_sku_8: y[8] - z[6] >= 0
 link_order_7_sku_15: y[15] - z[7] >= 0
 link_order_7_sku_16: y[16] - z[7] >= 0
 link_order_7_sku_17: y[17] - z[7] >= 0
 capacity: 2 z[0] + 3 z[1] + 2 z[2] + 3 z[3] + 2 z[4] + 3 z[5] + 2 z[6]
   + 3 z[7] <= 20
 link_depot: x[130] + x[134] + x[135] + x[136] + x[137] + x[138] + x[139]
   + x[140] + x[141] + x[142] + x[143] + x[144] + x[145] >= 1
Bounds
Binaries
 x[0] x[1] x[2] x[3] x[4] x[5] x[6] x[7] x[8] x[9] x[10] x[11] x[12] x[13]
 x[14] x[15] x[16] x[17] x[18] x[19] x[20] x[21] x[22] x[23] x[24] x[25]
 x[26] x[27] x[28] x[29] x[30] x[31] x[32] x[33] x[34] x[35] x[36] x[37]
 x[38] x[39] x[40] x[41] x[42] x[43] x[44] x[45] x[46] x[47] x[48] x[49]
 x[50] x[51] x[52] x[53] x[54] x[55] x[56] x[57] x[58] x[59] x[60] x[61]
 x[62] x[63] x[64] x[65] x[66] x[67] x[68] x[69] x[70] x[71] x[72] x[73]
 x[74] x[75] x[76] x[77] x[78] x[79] x[80] x[81] x[82] x[83] x[84] x[85]
 x[86] x[87] x[88] x[89] x[90] x[91] x[92] x[93] x[94] x[95] x[96] x[97]
 x[98] x[99] x[100] x[101] x[102] x[103] x[104] x[105] x[106] x[107] x[108]
 x[109] x[110] x[111] x[112] x[113] x[114] x[115] x[116] x[117] x[118]
 x[119] x[120] x[121] x[122] x[123] x[124] x[125] x[126] x[127] x[128]
 x[129] x[130] x[131] x[132] x[133] x[134] x[135] x[136] x[137] x[138]
 x[139] x[140] x[141] x[142] x[143] x[144] x[145] x[146] x[147] x[148]
 x[149] x[150] x[151] x[152] x[153] x[154] x[155] x[156] x[157] x[158]
 x[159] x[160] x[161] x[162] x[163] x[164] x[165] x[166] x[167] x[168]
 x[169] x[170] x[171] x[172] x[173] x[174] x[175] x[176] x[177] x[178]
 x[179] x[180] x[181] x[182] x[183] x[184] x[185] x[186] x[187] x[188]
 x[189] x[190] x[191] x[192] x[193] x[194] x[195] x[196] x[197] x[198]
 x[199] x[200] x[201] x[202] x[203] x[204] x[205] x[206] x[207] x[208]
 x[209] x[210] x[211] x[212] x[213] x[214] x[215] x[216] x[217] x[218]
 x[219] x[220] x[221] x[222] x[223] x[224] x[225] x[226] x[227] x[228]
 x[229] x[230] x[231] x[232] x[233] x[234] x[235] x[236] x[237] x[238]
 x[239] x[240] x[241] x[242] x[243] x[244] x[245] x[246] x[247] x[248]
 x[249] x[250] x[251] x[252] x[253] x[254] x[255] x[256] x[257] x[258]
 x[259] x[260] x[261] x[262] x[263] x[264] x[265] x[266] x[267] x[268]
 x[269] x[270] x[271] x[272] x[273] x[274] x[275] x[276] x[277] x[278]
 x[279] x[280] x[281] x[282] x[283] x[284] x[285] x[286] x[287] x[288]
 x[289] x[290] x[291] x[292] x[293] x[294] x[295] x[296] x[297] x[298]
 x[299] x[300] x[301] x[302] x[303] x[304] x[305] x[306] x[307] x[308]
 x[309] x[310] x[311] x[312] x[313] x[314] x[315] x[316] x[317] x[318]
 x[319] x[320] x[321] x[322] x[323] x[324] x[325] x[326] x[327] x[328]
 x[329] x[330] x[331] x[332] x[333] x[334] x[335] x[336] x[337] x[338]
 x[339] x[340] x[341] x[342] x[343] x[344] x[345] x[346] x[347] x[348]
 x[349] x[350] x[351] x[352] x[353] x[354] x[355] x[356] x[357] x[358]
 x[359] x[360] x[361] x[362] x[363] x[364] x[365] x[366] x[367] x[368]
 x[369] x[370] x[371] x[372] x[373] x[374] x[375] x[376] x[377] x[378]
 x[379] x[380] x[381] x[382] x[383] x[384] x[385] x[386] x[387] x[388]
 x[389] x[390] x[391] x[392] x[393] x[394] x[395] x[396] x[397] x[398]
 x[399] x[400] x[401] x[402] x[403] x[404] x[405] x[406] x[407] x[408]
 x[409] x[410] x[411] x[412] x[413] x[414] x[415] x[416] x[417] x[418]
 x[419] x[420] x[421] x[422] x[423] x[424] x[425] x[426] x[427] x[428]
 x[429] x[430] x[431] x[432] x[433] x[434] x[435] x[436] x[437] x[438]
 x[439] x[440] x[441] x[442] x[443] x[444] x[445] x[446] x[447] x[448]
 x[449] x[450] x[451] x[452] x[453] x[454] x[455] x[456] x[457] x[458]
 x[459] x[460] x[461] x[462] x[463] x[464] x[465] x[466] x[467] x[468]
 x[469] x[470] x[471] x[472] x[473] x[474] x[475] x[476] x[477] x[478]
 x[479] x[480] x[481] x[482] x[483] x[484] x[485] x[486] x[487] x[488]
 x[489] x[490] x[491] x[492] x[493] x[494] x[495] x[496] x[497] x[498]
 x[499] x[500] x[501] x[502] x[503] x[504] x[505] x[506] x[507] x[508]
 x[509] x[510] x[511] x[512] x[513] x[514] x[515] x[516] x[517] x[518]
 x[519] x[520] x[521] x[522] x[523] x[524] x[525] x[526] x[527] x[528]
 x[529] x[530] x[531] x[532] x[533] x[534] x[535] x[536] x[537] x[538]
 x[539] x[540] x[541] x[542] x[543] x[544] x[545] y[0] y[1] y[2] y[3] y[4]
 y[5] y[6] y[7] y[8] y[9] y[10] y[11] y[12] y[13] y[14] y[15] y[16] y[17]
 z[0] z[1] z[2] z[3] z[4] z[5] z[6] z[7]
End
